#######################################################################
##                                                                   ##
##                  Single chain_4000 beads                          ##
##                         Jan 2017                                  ##
##                                                                   ##
#######################################################################

units		    lj
boundary	    p p p
atom_style	    molecular
read_data	    N90_M_100_contacts_Cross.data
#read_restart	restart.Chain90_M_100_eta_11_series.70000000

variable        root index Chain90_M_100_eta_11_cross
variable        Nf equal 100000
variable        Ne equal 100
variable        Nr equal ${Nf}/${Ne}
variable        Nrestart equal 10000000

variable	RandGen equal 1819#1011
variable        Nrun equal 100000000#100000000
variable        Ndump equal 100000
variable	epsilon equal 11

########################((General information))#######################

compute         xAtom all property/atom x y z

variable 	 x1_1 equal c_xAtom[1][1]
variable 	 y1_1 equal c_xAtom[1][2]
variable 	 z1_1 equal c_xAtom[1][3]
variable 	 x1_2 equal c_xAtom[30][1]
variable 	 y1_2 equal c_xAtom[30][2]
variable 	 z1_2 equal c_xAtom[30][3]
variable 	 x1_3 equal c_xAtom[60][1]
variable 	 y1_3 equal c_xAtom[60][2]
variable 	 z1_3 equal c_xAtom[60][3]
variable 	 x1_4 equal c_xAtom[90][1]
variable 	 y1_4 equal c_xAtom[90][2]
variable 	 z1_4 equal c_xAtom[90][3]
variable 	 x2_1 equal c_xAtom[91][1]
variable 	 y2_1 equal c_xAtom[91][2]
variable 	 z2_1 equal c_xAtom[91][3]
variable 	 x2_2 equal c_xAtom[120][1]
variable 	 y2_2 equal c_xAtom[120][2]
variable 	 z2_2 equal c_xAtom[120][3]
variable 	 x2_3 equal c_xAtom[150][1]
variable 	 y2_3 equal c_xAtom[150][2]
variable 	 z2_3 equal c_xAtom[150][3]
variable 	 x2_4 equal c_xAtom[180][1]
variable 	 y2_4 equal c_xAtom[180][2]
variable 	 z2_4 equal c_xAtom[180][3]
variable 	 x3_1 equal c_xAtom[181][1]
variable 	 y3_1 equal c_xAtom[181][2]
variable 	 z3_1 equal c_xAtom[181][3]
variable 	 x3_2 equal c_xAtom[210][1]
variable 	 y3_2 equal c_xAtom[210][2]
variable 	 z3_2 equal c_xAtom[210][3]
variable 	 x3_3 equal c_xAtom[240][1]
variable 	 y3_3 equal c_xAtom[240][2]
variable 	 z3_3 equal c_xAtom[240][3]
variable 	 x3_4 equal c_xAtom[270][1]
variable 	 y3_4 equal c_xAtom[270][2]
variable 	 z3_4 equal c_xAtom[270][3]
variable 	 x4_1 equal c_xAtom[271][1]
variable 	 y4_1 equal c_xAtom[271][2]
variable 	 z4_1 equal c_xAtom[271][3]
variable 	 x4_2 equal c_xAtom[300][1]
variable 	 y4_2 equal c_xAtom[300][2]
variable 	 z4_2 equal c_xAtom[300][3]
variable 	 x4_3 equal c_xAtom[330][1]
variable 	 y4_3 equal c_xAtom[330][2]
variable 	 z4_3 equal c_xAtom[330][3]
variable 	 x4_4 equal c_xAtom[360][1]
variable 	 y4_4 equal c_xAtom[360][2]
variable 	 z4_4 equal c_xAtom[360][3]
variable 	 x5_1 equal c_xAtom[361][1]
variable 	 y5_1 equal c_xAtom[361][2]
variable 	 z5_1 equal c_xAtom[361][3]
variable 	 x5_2 equal c_xAtom[390][1]
variable 	 y5_2 equal c_xAtom[390][2]
variable 	 z5_2 equal c_xAtom[390][3]
variable 	 x5_3 equal c_xAtom[420][1]
variable 	 y5_3 equal c_xAtom[420][2]
variable 	 z5_3 equal c_xAtom[420][3]
variable 	 x5_4 equal c_xAtom[450][1]
variable 	 y5_4 equal c_xAtom[450][2]
variable 	 z5_4 equal c_xAtom[450][3]
variable 	 x6_1 equal c_xAtom[451][1]
variable 	 y6_1 equal c_xAtom[451][2]
variable 	 z6_1 equal c_xAtom[451][3]
variable 	 x6_2 equal c_xAtom[480][1]
variable 	 y6_2 equal c_xAtom[480][2]
variable 	 z6_2 equal c_xAtom[480][3]
variable 	 x6_3 equal c_xAtom[510][1]
variable 	 y6_3 equal c_xAtom[510][2]
variable 	 z6_3 equal c_xAtom[510][3]
variable 	 x6_4 equal c_xAtom[540][1]
variable 	 y6_4 equal c_xAtom[540][2]
variable 	 z6_4 equal c_xAtom[540][3]
variable 	 x7_1 equal c_xAtom[541][1]
variable 	 y7_1 equal c_xAtom[541][2]
variable 	 z7_1 equal c_xAtom[541][3]
variable 	 x7_2 equal c_xAtom[570][1]
variable 	 y7_2 equal c_xAtom[570][2]
variable 	 z7_2 equal c_xAtom[570][3]
variable 	 x7_3 equal c_xAtom[600][1]
variable 	 y7_3 equal c_xAtom[600][2]
variable 	 z7_3 equal c_xAtom[600][3]
variable 	 x7_4 equal c_xAtom[630][1]
variable 	 y7_4 equal c_xAtom[630][2]
variable 	 z7_4 equal c_xAtom[630][3]
variable 	 x8_1 equal c_xAtom[631][1]
variable 	 y8_1 equal c_xAtom[631][2]
variable 	 z8_1 equal c_xAtom[631][3]
variable 	 x8_2 equal c_xAtom[660][1]
variable 	 y8_2 equal c_xAtom[660][2]
variable 	 z8_2 equal c_xAtom[660][3]
variable 	 x8_3 equal c_xAtom[690][1]
variable 	 y8_3 equal c_xAtom[690][2]
variable 	 z8_3 equal c_xAtom[690][3]
variable 	 x8_4 equal c_xAtom[720][1]
variable 	 y8_4 equal c_xAtom[720][2]
variable 	 z8_4 equal c_xAtom[720][3]
variable 	 x9_1 equal c_xAtom[721][1]
variable 	 y9_1 equal c_xAtom[721][2]
variable 	 z9_1 equal c_xAtom[721][3]
variable 	 x9_2 equal c_xAtom[750][1]
variable 	 y9_2 equal c_xAtom[750][2]
variable 	 z9_2 equal c_xAtom[750][3]
variable 	 x9_3 equal c_xAtom[780][1]
variable 	 y9_3 equal c_xAtom[780][2]
variable 	 z9_3 equal c_xAtom[780][3]
variable 	 x9_4 equal c_xAtom[810][1]
variable 	 y9_4 equal c_xAtom[810][2]
variable 	 z9_4 equal c_xAtom[810][3]
variable 	 x10_1 equal c_xAtom[811][1]
variable 	 y10_1 equal c_xAtom[811][2]
variable 	 z10_1 equal c_xAtom[811][3]
variable 	 x10_2 equal c_xAtom[840][1]
variable 	 y10_2 equal c_xAtom[840][2]
variable 	 z10_2 equal c_xAtom[840][3]
variable 	 x10_3 equal c_xAtom[870][1]
variable 	 y10_3 equal c_xAtom[870][2]
variable 	 z10_3 equal c_xAtom[870][3]
variable 	 x10_4 equal c_xAtom[900][1]
variable 	 y10_4 equal c_xAtom[900][2]
variable 	 z10_4 equal c_xAtom[900][3]


dump		total all custom ${Ndump} positions_cross_c_100.lammpstrj id type x y z 
dump_modify	total sort id


#dump            total all xyz ${Ndump} dump.equi.xyz
#dump_modify 	total flush yes

#dump			total all xyz ${Ndump} positions_${epsilon}_series.txt
#dump_modify 	total flush yes
#dump_modify	total sort id


variable	epsilon1 equal 0.1
variable	epsilon2 equal ${epsilon}

variable	epsilon_11 equal ${epsilon1}

variable	epsilon_24 equal ${epsilon2}
variable	epsilon_35 equal ${epsilon2}
variable	epsilon_68 equal ${epsilon2}
variable	epsilon_79 equal ${epsilon2}
variable	epsilon_1012 equal ${epsilon2}
variable	epsilon_1113 equal ${epsilon2}
variable	epsilon_1416 equal ${epsilon2}
variable	epsilon_1517 equal ${epsilon2}
variable	epsilon_1820 equal ${epsilon2}
variable	epsilon_1921 equal ${epsilon2}
variable	epsilon_2224 equal ${epsilon2}
variable	epsilon_2325 equal ${epsilon2}
variable	epsilon_2628 equal ${epsilon2}
variable	epsilon_2729 equal ${epsilon2}
variable	epsilon_3032 equal ${epsilon2}
variable	epsilon_3133 equal ${epsilon2}
variable	epsilon_3436 equal ${epsilon2}
variable	epsilon_3537 equal ${epsilon2}
variable	epsilon_3840 equal ${epsilon2}
variable	epsilon_3941 equal ${epsilon2}
variable	epsilon_4244 equal ${epsilon2}
variable	epsilon_4345 equal ${epsilon2}
variable	epsilon_4648 equal ${epsilon2}
variable	epsilon_4749 equal ${epsilon2}
variable	epsilon_5052 equal ${epsilon2}
variable	epsilon_5153 equal ${epsilon2}
variable	epsilon_5456 equal ${epsilon2}
variable	epsilon_5557 equal ${epsilon2}
variable	epsilon_5860 equal ${epsilon2}
variable	epsilon_5961 equal ${epsilon2}
variable	epsilon_6264 equal ${epsilon2}
variable	epsilon_6365 equal ${epsilon2}
variable	epsilon_6668 equal ${epsilon2}
variable	epsilon_6769 equal ${epsilon2}
variable	epsilon_7072 equal ${epsilon2}
variable	epsilon_7173 equal ${epsilon2}
variable	epsilon_7476 equal ${epsilon2}
variable	epsilon_7577 equal ${epsilon2}
variable	epsilon_7880 equal ${epsilon2}
variable	epsilon_7981 equal ${epsilon2}
variable	epsilon_8284 equal ${epsilon2}
variable	epsilon_8385 equal ${epsilon2}
variable	epsilon_8688 equal ${epsilon2}
variable	epsilon_8789 equal ${epsilon2}
variable	epsilon_9092 equal ${epsilon2}
variable	epsilon_9193 equal ${epsilon2}
variable	epsilon_9496 equal ${epsilon2}
variable	epsilon_9597 equal ${epsilon2}
variable	epsilon_98100 equal ${epsilon2}
variable	epsilon_99101 equal ${epsilon2}
variable	epsilon_102104 equal ${epsilon2}
variable	epsilon_103105 equal ${epsilon2}
variable	epsilon_106108 equal ${epsilon2}
variable	epsilon_107109 equal ${epsilon2}
variable	epsilon_110112 equal ${epsilon2}
variable	epsilon_111113 equal ${epsilon2}
variable	epsilon_114116 equal ${epsilon2}
variable	epsilon_115117 equal ${epsilon2}
variable	epsilon_118120 equal ${epsilon2}
variable	epsilon_119121 equal ${epsilon2}
variable	epsilon_122124 equal ${epsilon2}
variable	epsilon_123125 equal ${epsilon2}
variable	epsilon_126128 equal ${epsilon2}
variable	epsilon_127129 equal ${epsilon2}
variable	epsilon_130132 equal ${epsilon2}
variable	epsilon_131133 equal ${epsilon2}
variable	epsilon_134136 equal ${epsilon2}
variable	epsilon_135137 equal ${epsilon2}
variable	epsilon_138140 equal ${epsilon2}
variable	epsilon_139141 equal ${epsilon2}
variable	epsilon_142144 equal ${epsilon2}
variable	epsilon_143145 equal ${epsilon2}
variable	epsilon_146148 equal ${epsilon2}
variable	epsilon_147149 equal ${epsilon2}
variable	epsilon_150152 equal ${epsilon2}
variable	epsilon_151153 equal ${epsilon2}
variable	epsilon_154156 equal ${epsilon2}
variable	epsilon_155157 equal ${epsilon2}
variable	epsilon_158160 equal ${epsilon2}
variable	epsilon_159161 equal ${epsilon2}
variable	epsilon_162164 equal ${epsilon2}
variable	epsilon_163165 equal ${epsilon2}
variable	epsilon_166168 equal ${epsilon2}
variable	epsilon_167169 equal ${epsilon2}
variable	epsilon_170172 equal ${epsilon2}
variable	epsilon_171173 equal ${epsilon2}
variable	epsilon_174176 equal ${epsilon2}
variable	epsilon_175177 equal ${epsilon2}
variable	epsilon_178180 equal ${epsilon2}
variable	epsilon_179181 equal ${epsilon2}
variable	epsilon_182184 equal ${epsilon2}
variable	epsilon_183185 equal ${epsilon2}
variable	epsilon_186188 equal ${epsilon2}
variable	epsilon_187189 equal ${epsilon2}
variable	epsilon_190192 equal ${epsilon2}
variable	epsilon_191193 equal ${epsilon2}
variable	epsilon_194196 equal ${epsilon2}
variable	epsilon_195197 equal ${epsilon2}
variable	epsilon_198200 equal ${epsilon2}
variable	epsilon_199201 equal ${epsilon2}
variable	epsilon_202204 equal ${epsilon2}
variable	epsilon_203205 equal ${epsilon2}
variable	epsilon_206208 equal ${epsilon2}
variable	epsilon_207209 equal ${epsilon2}
variable	epsilon_210212 equal ${epsilon2}
variable	epsilon_211213 equal ${epsilon2}
variable	epsilon_214216 equal ${epsilon2}
variable	epsilon_215217 equal ${epsilon2}
variable	epsilon_218220 equal ${epsilon2}
variable	epsilon_219221 equal ${epsilon2}
variable	epsilon_222224 equal ${epsilon2}
variable	epsilon_223225 equal ${epsilon2}
variable	epsilon_226228 equal ${epsilon2}
variable	epsilon_227229 equal ${epsilon2}
variable	epsilon_230232 equal ${epsilon2}
variable	epsilon_231233 equal ${epsilon2}
variable	epsilon_234236 equal ${epsilon2}
variable	epsilon_235237 equal ${epsilon2}
variable	epsilon_238240 equal ${epsilon2}
variable	epsilon_239241 equal ${epsilon2}
variable	epsilon_242244 equal ${epsilon2}
variable	epsilon_243245 equal ${epsilon2}
variable	epsilon_246248 equal ${epsilon2}
variable	epsilon_247249 equal ${epsilon2}
variable	epsilon_250252 equal ${epsilon2}
variable	epsilon_251253 equal ${epsilon2}
variable	epsilon_254256 equal ${epsilon2}
variable	epsilon_255257 equal ${epsilon2}
variable	epsilon_258260 equal ${epsilon2}
variable	epsilon_259261 equal ${epsilon2}
variable	epsilon_262264 equal ${epsilon2}
variable	epsilon_263265 equal ${epsilon2}
variable	epsilon_266268 equal ${epsilon2}
variable	epsilon_267269 equal ${epsilon2}
variable	epsilon_270272 equal ${epsilon2}
variable	epsilon_271273 equal ${epsilon2}
variable	epsilon_274276 equal ${epsilon2}
variable	epsilon_275277 equal ${epsilon2}
variable	epsilon_278280 equal ${epsilon2}
variable	epsilon_279281 equal ${epsilon2}
variable	epsilon_282284 equal ${epsilon2}
variable	epsilon_283285 equal ${epsilon2}
variable	epsilon_286288 equal ${epsilon2}
variable	epsilon_287289 equal ${epsilon2}
variable	epsilon_290292 equal ${epsilon2}
variable	epsilon_291293 equal ${epsilon2}
variable	epsilon_294296 equal ${epsilon2}
variable	epsilon_295297 equal ${epsilon2}
variable	epsilon_298300 equal ${epsilon2}
variable	epsilon_299301 equal ${epsilon2}
variable	epsilon_302304 equal ${epsilon2}
variable	epsilon_303305 equal ${epsilon2}
variable	epsilon_306308 equal ${epsilon2}
variable	epsilon_307309 equal ${epsilon2}
variable	epsilon_310312 equal ${epsilon2}
variable	epsilon_311313 equal ${epsilon2}
variable	epsilon_314316 equal ${epsilon2}
variable	epsilon_315317 equal ${epsilon2}
variable	epsilon_318320 equal ${epsilon2}
variable	epsilon_319321 equal ${epsilon2}
variable	epsilon_322324 equal ${epsilon2}
variable	epsilon_323325 equal ${epsilon2}
variable	epsilon_326328 equal ${epsilon2}
variable	epsilon_327329 equal ${epsilon2}
variable	epsilon_330332 equal ${epsilon2}
variable	epsilon_331333 equal ${epsilon2}
variable	epsilon_334336 equal ${epsilon2}
variable	epsilon_335337 equal ${epsilon2}
variable	epsilon_338340 equal ${epsilon2}
variable	epsilon_339341 equal ${epsilon2}
variable	epsilon_342344 equal ${epsilon2}
variable	epsilon_343345 equal ${epsilon2}
variable	epsilon_346348 equal ${epsilon2}
variable	epsilon_347349 equal ${epsilon2}
variable	epsilon_350352 equal ${epsilon2}
variable	epsilon_351353 equal ${epsilon2}
variable	epsilon_354356 equal ${epsilon2}
variable	epsilon_355357 equal ${epsilon2}
variable	epsilon_358360 equal ${epsilon2}
variable	epsilon_359361 equal ${epsilon2}
variable	epsilon_362364 equal ${epsilon2}
variable	epsilon_363365 equal ${epsilon2}
variable	epsilon_366368 equal ${epsilon2}
variable	epsilon_367369 equal ${epsilon2}
variable	epsilon_370372 equal ${epsilon2}
variable	epsilon_371373 equal ${epsilon2}
variable	epsilon_374376 equal ${epsilon2}
variable	epsilon_375377 equal ${epsilon2}
variable	epsilon_378380 equal ${epsilon2}
variable	epsilon_379381 equal ${epsilon2}
variable	epsilon_382384 equal ${epsilon2}
variable	epsilon_383385 equal ${epsilon2}
variable	epsilon_386388 equal ${epsilon2}
variable	epsilon_387389 equal ${epsilon2}
variable	epsilon_390392 equal ${epsilon2}
variable	epsilon_391393 equal ${epsilon2}
variable	epsilon_394396 equal ${epsilon2}
variable	epsilon_395397 equal ${epsilon2}
variable	epsilon_398400 equal ${epsilon2}
variable	epsilon_399401 equal ${epsilon2}




#fix 1 all npt temp 1.0 1.0  1.0 iso 0.01 0.01 10.0
#fix 1 all npt temp 1.0 1.0  1.0 iso 0.1 0.1 10.0
#fix 1 all npt temp 1.0 1.0  1.0 iso 1.0 1.0 10.0



fix		1 all langevin 1. 1.0 1 ${RandGen}
fix		2 all nve

######################### Start of Loop #####################################

bond_style      fene
bond_coeff      1       30.0    1.5     1.0     1.0

pair_style lj/smooth/linear 2.5
pair_coeff	* * ${epsilon_11} 1


pair_coeff	2 4 ${epsilon_24} 1
pair_coeff	3 5 ${epsilon_35} 1
pair_coeff	6 8 ${epsilon_68} 1
pair_coeff	7 9 ${epsilon_79} 1
pair_coeff	10 12 ${epsilon_1012} 1
pair_coeff	11 13 ${epsilon_1113} 1
pair_coeff	14 16 ${epsilon_1416} 1
pair_coeff	15 17 ${epsilon_1517} 1
pair_coeff	18 20 ${epsilon_1820} 1
pair_coeff	19 21 ${epsilon_1921} 1
pair_coeff	22 24 ${epsilon_2224} 1
pair_coeff	23 25 ${epsilon_2325} 1
pair_coeff	26 28 ${epsilon_2628} 1
pair_coeff	27 29 ${epsilon_2729} 1
pair_coeff	30 32 ${epsilon_3032} 1
pair_coeff	31 33 ${epsilon_3133} 1
pair_coeff	34 36 ${epsilon_3436} 1
pair_coeff	35 37 ${epsilon_3537} 1
pair_coeff	38 40 ${epsilon_3840} 1
pair_coeff	39 41 ${epsilon_3941} 1
pair_coeff	42 44 ${epsilon_4244} 1
pair_coeff	43 45 ${epsilon_4345} 1
pair_coeff	46 48 ${epsilon_4648} 1
pair_coeff	47 49 ${epsilon_4749} 1
pair_coeff	50 52 ${epsilon_5052} 1
pair_coeff	51 53 ${epsilon_5153} 1
pair_coeff	54 56 ${epsilon_5456} 1
pair_coeff	55 57 ${epsilon_5557} 1
pair_coeff	58 60 ${epsilon_5860} 1
pair_coeff	59 61 ${epsilon_5961} 1
pair_coeff	62 64 ${epsilon_6264} 1
pair_coeff	63 65 ${epsilon_6365} 1
pair_coeff	66 68 ${epsilon_6668} 1
pair_coeff	67 69 ${epsilon_6769} 1
pair_coeff	70 72 ${epsilon_7072} 1
pair_coeff	71 73 ${epsilon_7173} 1
pair_coeff	74 76 ${epsilon_7476} 1
pair_coeff	75 77 ${epsilon_7577} 1
pair_coeff	78 80 ${epsilon_7880} 1
pair_coeff	79 81 ${epsilon_7981} 1
pair_coeff	82 84 ${epsilon_8284} 1
pair_coeff	83 85 ${epsilon_8385} 1
pair_coeff	86 88 ${epsilon_8688} 1
pair_coeff	87 89 ${epsilon_8789} 1
pair_coeff	90 92 ${epsilon_9092} 1
pair_coeff	91 93 ${epsilon_9193} 1
pair_coeff	94 96 ${epsilon_9496} 1
pair_coeff	95 97 ${epsilon_9597} 1
pair_coeff	98 100 ${epsilon_98100} 1
pair_coeff	99 101 ${epsilon_99101} 1
pair_coeff	102 104 ${epsilon_102104} 1
pair_coeff	103 105 ${epsilon_103105} 1
pair_coeff	106 108 ${epsilon_106108} 1
pair_coeff	107 109 ${epsilon_107109} 1
pair_coeff	110 112 ${epsilon_110112} 1
pair_coeff	111 113 ${epsilon_111113} 1
pair_coeff	114 116 ${epsilon_114116} 1
pair_coeff	115 117 ${epsilon_115117} 1
pair_coeff	118 120 ${epsilon_118120} 1
pair_coeff	119 121 ${epsilon_119121} 1
pair_coeff	122 124 ${epsilon_122124} 1
pair_coeff	123 125 ${epsilon_123125} 1
pair_coeff	126 128 ${epsilon_126128} 1
pair_coeff	127 129 ${epsilon_127129} 1
pair_coeff	130 132 ${epsilon_130132} 1
pair_coeff	131 133 ${epsilon_131133} 1
pair_coeff	134 136 ${epsilon_134136} 1
pair_coeff	135 137 ${epsilon_135137} 1
pair_coeff	138 140 ${epsilon_138140} 1
pair_coeff	139 141 ${epsilon_139141} 1
pair_coeff	142 144 ${epsilon_142144} 1
pair_coeff	143 145 ${epsilon_143145} 1
pair_coeff	146 148 ${epsilon_146148} 1
pair_coeff	147 149 ${epsilon_147149} 1
pair_coeff	150 152 ${epsilon_150152} 1
pair_coeff	151 153 ${epsilon_151153} 1
pair_coeff	154 156 ${epsilon_154156} 1
pair_coeff	155 157 ${epsilon_155157} 1
pair_coeff	158 160 ${epsilon_158160} 1
pair_coeff	159 161 ${epsilon_159161} 1
pair_coeff	162 164 ${epsilon_162164} 1
pair_coeff	163 165 ${epsilon_163165} 1
pair_coeff	166 168 ${epsilon_166168} 1
pair_coeff	167 169 ${epsilon_167169} 1
pair_coeff	170 172 ${epsilon_170172} 1
pair_coeff	171 173 ${epsilon_171173} 1
pair_coeff	174 176 ${epsilon_174176} 1
pair_coeff	175 177 ${epsilon_175177} 1
pair_coeff	178 180 ${epsilon_178180} 1
pair_coeff	179 181 ${epsilon_179181} 1
pair_coeff	182 184 ${epsilon_182184} 1
pair_coeff	183 185 ${epsilon_183185} 1
pair_coeff	186 188 ${epsilon_186188} 1
pair_coeff	187 189 ${epsilon_187189} 1
pair_coeff	190 192 ${epsilon_190192} 1
pair_coeff	191 193 ${epsilon_191193} 1
pair_coeff	194 196 ${epsilon_194196} 1
pair_coeff	195 197 ${epsilon_195197} 1
pair_coeff	198 200 ${epsilon_198200} 1
pair_coeff	199 201 ${epsilon_199201} 1
pair_coeff	202 204 ${epsilon_202204} 1
pair_coeff	203 205 ${epsilon_203205} 1
pair_coeff	206 208 ${epsilon_206208} 1
pair_coeff	207 209 ${epsilon_207209} 1
pair_coeff	210 212 ${epsilon_210212} 1
pair_coeff	211 213 ${epsilon_211213} 1
pair_coeff	214 216 ${epsilon_214216} 1
pair_coeff	215 217 ${epsilon_215217} 1
pair_coeff	218 220 ${epsilon_218220} 1
pair_coeff	219 221 ${epsilon_219221} 1
pair_coeff	222 224 ${epsilon_222224} 1
pair_coeff	223 225 ${epsilon_223225} 1
pair_coeff	226 228 ${epsilon_226228} 1
pair_coeff	227 229 ${epsilon_227229} 1
pair_coeff	230 232 ${epsilon_230232} 1
pair_coeff	231 233 ${epsilon_231233} 1
pair_coeff	234 236 ${epsilon_234236} 1
pair_coeff	235 237 ${epsilon_235237} 1
pair_coeff	238 240 ${epsilon_238240} 1
pair_coeff	239 241 ${epsilon_239241} 1
pair_coeff	242 244 ${epsilon_242244} 1
pair_coeff	243 245 ${epsilon_243245} 1
pair_coeff	246 248 ${epsilon_246248} 1
pair_coeff	247 249 ${epsilon_247249} 1
pair_coeff	250 252 ${epsilon_250252} 1
pair_coeff	251 253 ${epsilon_251253} 1
pair_coeff	254 256 ${epsilon_254256} 1
pair_coeff	255 257 ${epsilon_255257} 1
pair_coeff	258 260 ${epsilon_258260} 1
pair_coeff	259 261 ${epsilon_259261} 1
pair_coeff	262 264 ${epsilon_262264} 1
pair_coeff	263 265 ${epsilon_263265} 1
pair_coeff	266 268 ${epsilon_266268} 1
pair_coeff	267 269 ${epsilon_267269} 1
pair_coeff	270 272 ${epsilon_270272} 1
pair_coeff	271 273 ${epsilon_271273} 1
pair_coeff	274 276 ${epsilon_274276} 1
pair_coeff	275 277 ${epsilon_275277} 1
pair_coeff	278 280 ${epsilon_278280} 1
pair_coeff	279 281 ${epsilon_279281} 1
pair_coeff	282 284 ${epsilon_282284} 1
pair_coeff	283 285 ${epsilon_283285} 1
pair_coeff	286 288 ${epsilon_286288} 1
pair_coeff	287 289 ${epsilon_287289} 1
pair_coeff	290 292 ${epsilon_290292} 1
pair_coeff	291 293 ${epsilon_291293} 1
pair_coeff	294 296 ${epsilon_294296} 1
pair_coeff	295 297 ${epsilon_295297} 1
pair_coeff	298 300 ${epsilon_298300} 1
pair_coeff	299 301 ${epsilon_299301} 1
pair_coeff	302 304 ${epsilon_302304} 1
pair_coeff	303 305 ${epsilon_303305} 1
pair_coeff	306 308 ${epsilon_306308} 1
pair_coeff	307 309 ${epsilon_307309} 1
pair_coeff	310 312 ${epsilon_310312} 1
pair_coeff	311 313 ${epsilon_311313} 1
pair_coeff	314 316 ${epsilon_314316} 1
pair_coeff	315 317 ${epsilon_315317} 1
pair_coeff	318 320 ${epsilon_318320} 1
pair_coeff	319 321 ${epsilon_319321} 1
pair_coeff	322 324 ${epsilon_322324} 1
pair_coeff	323 325 ${epsilon_323325} 1
pair_coeff	326 328 ${epsilon_326328} 1
pair_coeff	327 329 ${epsilon_327329} 1
pair_coeff	330 332 ${epsilon_330332} 1
pair_coeff	331 333 ${epsilon_331333} 1
pair_coeff	334 336 ${epsilon_334336} 1
pair_coeff	335 337 ${epsilon_335337} 1
pair_coeff	338 340 ${epsilon_338340} 1
pair_coeff	339 341 ${epsilon_339341} 1
pair_coeff	342 344 ${epsilon_342344} 1
pair_coeff	343 345 ${epsilon_343345} 1
pair_coeff	346 348 ${epsilon_346348} 1
pair_coeff	347 349 ${epsilon_347349} 1
pair_coeff	350 352 ${epsilon_350352} 1
pair_coeff	351 353 ${epsilon_351353} 1
pair_coeff	354 356 ${epsilon_354356} 1
pair_coeff	355 357 ${epsilon_355357} 1
pair_coeff	358 360 ${epsilon_358360} 1
pair_coeff	359 361 ${epsilon_359361} 1
pair_coeff	362 364 ${epsilon_362364} 1
pair_coeff	363 365 ${epsilon_363365} 1
pair_coeff	366 368 ${epsilon_366368} 1
pair_coeff	367 369 ${epsilon_367369} 1
pair_coeff	370 372 ${epsilon_370372} 1
pair_coeff	371 373 ${epsilon_371373} 1
pair_coeff	374 376 ${epsilon_374376} 1
pair_coeff	375 377 ${epsilon_375377} 1
pair_coeff	378 380 ${epsilon_378380} 1
pair_coeff	379 381 ${epsilon_379381} 1
pair_coeff	382 384 ${epsilon_382384} 1
pair_coeff	383 385 ${epsilon_383385} 1
pair_coeff	386 388 ${epsilon_386388} 1
pair_coeff	387 389 ${epsilon_387389} 1
pair_coeff	390 392 ${epsilon_390392} 1
pair_coeff	391 393 ${epsilon_391393} 1
pair_coeff	394 396 ${epsilon_394396} 1
pair_coeff	395 397 ${epsilon_395397} 1
pair_coeff	398 400 ${epsilon_398400} 1
pair_coeff	399 401 ${epsilon_399401} 1



#special_bonds	lj 0.0 0.0 0.0
special_bonds   fene

neighbor	2.0 bin
neigh_modify    every 1 delay 10 check yes

restart         ${Nrestart} restart.${root}

thermo_style	custom step temp pe ke etotal v_epsilon vol press
thermo		${Nf}

fix    extra1 all print 100 "${x1_1} ${y1_1} ${z1_1} ${x1_2} ${y1_2} ${z1_2} ${x1_3} ${y1_3} ${z1_3} ${x1_4} ${y1_4} ${z1_4}  " screen no title "" file N90_epsilon_11_zeta_1_M_100_Cross_chain_1.txt
fix    extra2 all print 100 "${x2_1} ${y2_1} ${z2_1} ${x2_2} ${y2_2} ${z2_2} ${x2_3} ${y2_3} ${z2_3} ${x2_4} ${y2_4} ${z2_4}  " screen no title "" file N90_epsilon_11_zeta_1_M_100_Cross_chain_2.txt
fix    extra3 all print 100 "${x3_1} ${y3_1} ${z3_1} ${x3_2} ${y3_2} ${z3_2} ${x3_3} ${y3_3} ${z3_3} ${x3_4} ${y3_4} ${z3_4}  " screen no title "" file N90_epsilon_11_zeta_1_M_100_Cross_chain_3.txt
fix    extra4 all print 100 "${x4_1} ${y4_1} ${z4_1} ${x4_2} ${y4_2} ${z4_2} ${x4_3} ${y4_3} ${z4_3} ${x4_4} ${y4_4} ${z4_4}  " screen no title "" file N90_epsilon_11_zeta_1_M_100_Cross_chain_4.txt
fix    extra5 all print 100 "${x5_1} ${y5_1} ${z5_1} ${x5_2} ${y5_2} ${z5_2} ${x5_3} ${y5_3} ${z5_3} ${x5_4} ${y5_4} ${z5_4}  " screen no title "" file N90_epsilon_11_zeta_1_M_100_Cross_chain_5.txt
fix    extra6 all print 100 "${x6_1} ${y6_1} ${z6_1} ${x6_2} ${y6_2} ${z6_2} ${x6_3} ${y6_3} ${z6_3} ${x6_4} ${y6_4} ${z6_4}  " screen no title "" file N90_epsilon_11_zeta_1_M_100_Cross_chain_6.txt
fix    extra7 all print 100 "${x7_1} ${y7_1} ${z7_1} ${x7_2} ${y7_2} ${z7_2} ${x7_3} ${y7_3} ${z7_3} ${x7_4} ${y7_4} ${z7_4}  " screen no title "" file N90_epsilon_11_zeta_1_M_100_Cross_chain_7.txt
fix    extra8 all print 100 "${x8_1} ${y8_1} ${z8_1} ${x8_2} ${y8_2} ${z8_2} ${x8_3} ${y8_3} ${z8_3} ${x8_4} ${y8_4} ${z8_4}  " screen no title "" file N90_epsilon_11_zeta_1_M_100_Cross_chain_8.txt
fix    extra9 all print 100 "${x9_1} ${y9_1} ${z9_1} ${x9_2} ${y9_2} ${z9_2} ${x9_3} ${y9_3} ${z9_3} ${x9_4} ${y9_4} ${z9_4}  " screen no title "" file N90_epsilon_11_zeta_1_M_100_Cross_chain_9.txt
fix    extra10 all print 100 "${x10_1} ${y10_1} ${z10_1} ${x10_2} ${y10_2} ${z10_2} ${x10_3} ${y10_3} ${z10_3} ${x10_4} ${y10_4} ${z10_4}  " screen no title "" file N90_epsilon_11_zeta_1_M_100_Cross_chain_10.txt



timestep	0.01

run		${Nrun}
